\* Problem: Fabrication de ciment *\

Maximize
Benefice: 700 c + 500 s 

Subject To
CapacitTempsTravail : 0.06 c + 0.05 s <= 60
CapaciteStockage : 2.5 c + 1 s <= 1500
Capaciteproduction : c <= 700


Integer 
c 
s  


End
